\ Model Linear_Programming_Example
\ LP format - for model browsing. Use MPS format to capture full model detail.
Maximize
  x + y + z
Subject To
 R0: x + y <= 1
 R1: y + z <= 1
 R2: x + z <= 1
Bounds
End
